proyfinal/src/viki/013/andrea/andrea-localstore/experimentInOfficeAgust.take6/worker_10/618efd33-4b5e-46db-9ae7-db5ee93f4138.als.cnf.out
Reading from standard input... Use '--help' for help.
============================[ Problem Statistics ]=============================
|                                                                             |
|  Number of variables:         87638                                         |
|  Number of clauses:          161767                                         |
|  Parse time:                   0.03 s                                       |
|                                                                             |
============================[ Search Statistics ]==============================
| Conflicts |          ORIGINAL         |          LEARNT          | Progress |
|           |    Vars  Clauses Literals |    Limit  Clauses Lit/Cl |          |
===============================================================================
|       100 |   61963   103704   259092 |    38024      100     37 | 29.297 % |
|       250 |   61963   103704   259092 |    41827      250     34 | 29.297 % |
|       475 |   61963   103704   259092 |    46010      475     42 | 29.297 % |
|       812 |   61951   103688   259048 |    50611      767     55 | 29.310 % |
|      1318 |   61925   103558   258700 |    55672     1166     75 | 29.340 % |
|      2077 |   61925   103558   258700 |    61239     1925     91 | 29.340 % |
|      3216 |   61898   103459   258436 |    67363     3039     81 | 29.371 % |
|      4924 |   61862   103327   258084 |    74099     4723     79 | 29.412 % |
|      7486 |   61835   103140   257682 |    81509     6773     81 | 29.443 % |
===============================================================================
restarts              : 38
conflicts             : 9056           (6052 /sec)
decisions             : 29793          (0.00 % random) (19911 /sec)
propagations          : 15644444       (10455112 /sec)
conflict literals     : 691345         (57.40 % deleted)
Memory used           : 27.53 MB
CPU time              : 1.49634 s

UNSATISFIABLE
